NAME : xql662
COMMENT : Bonn VLSI data set with 662 points
COMMENT : Uni Bonn, Research Institute for Discrete Math
COMMENT : Contributed by Andre Rohe
TYPE : TSP
DIMENSION : 662
EDGE_WEIGHT_TYPE : EUC_2D
NODE_COORD_SECTION
1	2	3	7	8	9	10	11	12	13	14	15	16	17	18	19	20	33	34	37	42	43	44	48	49	50	51	54	56	57	58	59	60	61	69	70	73	74	84	85	86	87	88	90	93	95	96	97	98	99	102	103	104	107	108	109	110	111	112	113	114	115	116	117	118	119	120	121	122	123	130	132	133	134	135	136	137	142	143	144	145	146	147	148	149	150	156	161	162	163	168	169	170	171	172	173	178	179	180	181	182	186	187	188	189	190	191	192	193	194	195	196	197	198	205	206	207	208	217	219	220	221	222	226	227	228	229	234	235	236	237	238	243	244	246	256	260	261	262	263	271	272	273	274	275	276	277	278	279	280	281	282	283	284	285	286	287	288	289	292	297	298	299	300	301	309	310	316	317	318	319	320	326	327	328	329	330	339	340	341	347	348	349	350	351	354	355	360	361	362	363	364	365	366	367	368	369	370	376	377	378	379	380	381	382	383	384	393	397	398	399	400	406	407	408	409	410	404	405	413	415	416	417	418	423	427	428	429	430	434	436	437	438	439	440	441	442	443	444	445	446	447	448	449	450	451	452	460	461	462	463	464	467	470	471	472	473	474	475	476	480	482	483	486	489	490	491	492	493	494	495	496	497	503	504	505	509	510	511	512	513	514	515	516	517	518	519	520	521	522	523	524	525	526	527	528	538	539	551	552	553	554	555	556	559	560	561	562	563	568	569	570	571	572	573	574	575	581	582	583	584	587	588	591	592	593	594	595	596	597	598	599	600	601	602	603	604	605	606	607	608	619	623	624	627	628	629	630	631	632	633	637	638	639	640	648	649	650	651	652	653	654	655	656	657	658	659	660	661	477	478	479	481	484	485	487	488	498	499	500	501	502	506	507	508	529	530	531	532	533	534	535	536	537	540	541	542	543	544	545	546	547	548	549	550	557	558	564	565	566	567	576	577	578	579	580	585	586	589	590	609	610	611	612	613	614	615	616	617	618	620	621	622	625	626	634	635	636	641	642	643	644	645	646	647	662	290	303	304	305	306	307	311	312	313	321	322	332	333	342	343	344	345	352	353	356	357	371	372	373	374	375	385	386	387	389	390	391	392	394	395	396	401	402	403	411	412	414	419	420	421	422	424	425	426	431	432	433	435	453	454	455	456	457	458	459	465	466	468	469	94	106	124	125	126	127	128	129	131	138	139	140	141	151	152	154	155	157	159	160	164	165	166	167	174	175	176	177	183	184	199	200	201	202	210	211	212	213	215	216	218	223	224	225	230	231	232	240	242	248	249	250	251	252	254	257	258	264	266	291	4	5	6	21	22	23	24	25	26	27	28	29	30	31	32	35	36	38	39	40	41	45	46	47	52	53	55	62	63	64	65	66	67	68	71	72	75	76	77	78	79	80	81	82	83	89	91	92	100	101	105	153	158	185	203	204	209	214	233	239	241	245	247	253	255	259	265	267	268	269	270	293	294	295	296	302	308	314	315	323	324	325	331	334	335	336	337	338	346	358	359	388	1	
aprx dist: 6647.200504014834429
Execution time: 3(ms)
TSP algorithm time: 2(ms)
	Command being timed: "./k-means ./dataset/xql662.tsp"
	User time (seconds): 0.00
	System time (seconds): 0.00
	Percent of CPU this job got: 100%
	Elapsed (wall clock) time (h:mm:ss or m:ss): 0:00.00
	Average shared text size (kbytes): 0
	Average unshared data size (kbytes): 0
	Average stack size (kbytes): 0
	Average total size (kbytes): 0
	Maximum resident set size (kbytes): 3996
	Average resident set size (kbytes): 0
	Major (requiring I/O) page faults: 0
	Minor (reclaiming a frame) page faults: 170
	Voluntary context switches: 1
	Involuntary context switches: 0
	Swaps: 0
	File system inputs: 0
	File system outputs: 8
	Socket messages sent: 0
	Socket messages received: 0
	Signals delivered: 0
	Page size (bytes): 4096
	Exit status: 0
